p cnf 47 84
-1 7 11 20 21 22 23 24 25 31 36 -2 10 45 0 
-3 18 -4 8 26 28 29 34 35 45 0 
-5 9 30 32 33 46 0 
-6 46 0 
-7 1 11 20 21 22 23 24 25 31 36 -6 45 0 
-1 7 11 20 21 22 23 24 25 31 36 -6 45 0 
-7 1 11 20 21 22 23 24 25 31 36 -2 10 45 0 
-8 4 26 28 29 34 35 45 0 
-9 5 30 32 33 -7 1 11 20 21 22 23 24 25 31 36 -10 2 45 0 
-7 1 11 20 21 22 23 24 25 31 36 -10 2 45 0 
-11 1 7 20 21 22 23 24 25 31 36 -2 10 -12 44 45 0 
-7 1 11 20 21 22 23 24 25 31 36 -2 10 -12 44 45 0 
-13 -14 17 43 -2 10 -15 45 0 
-16 -2 10 -14 17 43 -12 44 45 0 
-17 14 43 -2 10 -12 44 45 0 
-18 3 -11 1 7 20 21 22 23 24 25 31 36 -12 44 45 0 
-19 39 -14 17 43 -10 2 45 0 
-13 -14 17 43 -2 10 -12 44 45 0 
-7 1 11 20 21 22 23 24 25 31 36 -3 18 -12 44 45 0 
-4 8 26 28 29 34 35 45 0 
-20 1 7 11 21 22 23 24 25 31 36 45 0 
-21 1 7 11 20 22 23 24 25 31 36 45 0 
-22 1 7 11 20 21 23 24 25 31 36 45 0 
-23 1 7 11 20 21 22 24 25 31 36 45 0 
-24 1 7 11 20 21 22 23 25 31 36 45 0 
-25 1 7 11 20 21 22 23 24 31 36 45 0 
-26 4 8 28 29 34 35 45 0 
-1 7 11 20 21 22 23 24 25 31 36 45 0 
-27 38 46 0 
-18 3 -14 17 43 45 0 
-11 1 7 20 21 22 23 24 25 31 36 45 0 
-27 38 45 0 
-7 1 11 20 21 22 23 24 25 31 36 -12 44 45 0 
-28 4 8 26 29 34 35 45 0 
-29 4 8 26 28 34 35 45 0 
-6 45 0 
-30 5 9 32 33 46 0 
-31 1 7 11 20 21 22 23 24 25 36 46 0 
-32 5 9 30 33 47 0 
-32 5 9 30 33 46 0 
-33 5 9 30 32 46 0 
-34 4 8 26 28 29 35 45 0 
-13 -17 14 43 -2 10 -12 44 45 0 
-21 1 7 11 20 22 23 24 25 31 36 46 0 
-5 9 30 32 33 45 0 
-7 1 11 20 21 22 23 24 25 31 36 45 0 
-18 3 45 0 
-35 4 8 26 28 29 34 45 0 
-18 3 -7 1 11 20 21 22 23 24 25 31 36 -12 44 45 0 
-19 39 -14 17 43 -2 10 -12 44 45 0 
-2 10 -12 44 45 0 
-9 5 30 32 33 -1 7 11 20 21 22 23 24 25 31 36 -13 45 0 
-7 1 11 20 21 22 23 24 25 31 36 -18 3 -12 44 45 0 
-36 1 7 11 20 21 22 23 24 25 31 -3 18 -12 44 45 0 
-16 -7 1 11 20 21 22 23 24 25 31 36 -12 44 45 0 
-18 3 -7 1 11 20 21 22 23 24 25 31 36 45 0 
-14 17 43 -12 44 45 0 
-9 5 30 32 33 -18 3 -14 17 43 -6 45 0 
-18 3 -14 17 43 -6 45 0 
-2 10 -14 17 43 -12 44 45 0 
-11 1 7 20 21 22 23 24 25 31 36 -2 10 -6 45 0 
-2 10 -6 45 0 
-14 17 43 -2 10 -6 45 0 
-13 -14 17 43 -2 10 -6 45 0 
-7 1 11 20 21 22 23 24 25 31 36 -2 10 -6 45 0 
-19 39 -14 17 43 -2 10 45 0 
-13 -2 10 45 0 
-18 3 -4 8 26 28 29 34 35 45 0 
-37 -16 -1 7 11 20 21 22 23 24 25 31 36 -13 45 0 
-9 5 30 32 33 -1 7 11 20 21 22 23 24 25 31 36 -19 39 45 0 
-38 27 -37 -7 1 11 20 21 22 23 24 25 31 36 -39 19 -40 45 0 
-16 -11 1 7 20 21 22 23 24 25 31 36 -12 44 45 0 
-41 -42 -43 14 17 46 0 
-21 1 7 11 20 22 23 24 25 31 36 -42 -44 12 46 0 
-39 19 -29 4 8 26 28 34 35 45 0 
-11 1 7 20 21 22 23 24 25 31 36 -13 -12 44 45 0 
-36 1 7 11 20 21 22 23 24 25 31 -18 3 -12 44 45 0 
-9 5 30 32 33 -38 27 -1 7 11 20 21 22 23 24 25 31 36 -13 45 0 
-18 3 -14 17 43 -12 44 45 0 
-9 5 30 32 33 -7 1 11 20 21 22 23 24 25 31 36 -3 18 -12 44 45 0 
-2 10 45 0 
-12 44 45 0 
-4 8 26 28 29 34 35 45 0 
-13 -14 17 43 -2 10 45 0 
